data;

param num_top:=3;

#nodes and edges of the physical network
param n := 7;

set E := (1,2) (1,7) (2,3) (2,6) (2,7) (3,4) (3,6) (4,5) (4,6) (5,6) (6,7) (1,3) (5,7) ;

#nodes and edges of the virtual networks
set Nl[1] := 2 6 4 7 1 ;
set Nl[2] := 4 7 5 2 3 ;
set Nl[3] := 5 7 1 4 2 ;

set El[1] := (2,6) (4,6) (4,7) (1,7) (1,2) (2,4) (1,6) (6,7) (1,4) (2,7) ;
set El[2] := (4,7) (5,7) (2,5) (2,3) (3,4) (3,5) (2,7) (3,7) (2,4) (4,5) ;
set El[3] := (5,7) (1,7) (1,4) (2,4) (2,5) (4,7) (1,5) (1,2) (4,5) (2,7) ;
